data/lp_files/pEFS/103_2.lp
\ Model foo
\ LP format - for model browsing. Use MPS format to capture full model detail.
Minimize
  z
Subject To
 allocateEach[1]: x[1,1] + x[2,1] + x[3,1] + x[4,1] + x[5,1] + x[6,1] = 1
 allocateEach[2]: x[1,2] + x[2,2] + x[3,2] + x[4,2] + x[5,2] + x[6,2] = 1
 allocateEach[3]: x[1,3] + x[2,3] + x[3,3] + x[4,3] + x[5,3] + x[6,3] = 1
 allocateAllCash: cashProportion[1] + cashProportion[2] + cashProportion[3]
   + cashProportion[4] + cashProportion[5] + cashProportion[6] = 1
 findWorstP[1,2]: z + 0.0840807174887893 cashProportion[1]
   - 0.0840807174887893 cashProportion[2] + 0.5493834080717489 x[1,1]
   + 0.1754484304932735 x[1,2] + 0.1910874439461883 x[1,3]
   - 0.5493834080717489 x[2,1] - 0.1754484304932735 x[2,2]
   - 0.1910874439461883 x[2,3] >= 0
 findWorstP[1,3]: z + 0.0840807174887893 cashProportion[1]
   - 0.0840807174887893 cashProportion[3] + 0.5493834080717489 x[1,1]
   + 0.1754484304932735 x[1,2] + 0.1910874439461883 x[1,3]
   - 0.5493834080717489 x[3,1] - 0.1754484304932735 x[3,2]
   - 0.1910874439461883 x[3,3] >= 0
 findWorstP[1,4]: z + 0.0840807174887893 cashProportion[1]
   - 0.0840807174887893 cashProportion[4] + 0.5493834080717489 x[1,1]
   + 0.1754484304932735 x[1,2] + 0.1910874439461883 x[1,3]
   - 0.5493834080717489 x[4,1] - 0.1754484304932735 x[4,2]
   - 0.1910874439461883 x[4,3] >= 0
 findWorstP[1,5]: z + 0.0840807174887893 cashProportion[1]
   - 0.0840807174887893 cashProportion[5] + 0.5493834080717489 x[1,1]
   + 0.1754484304932735 x[1,2] + 0.1910874439461883 x[1,3]
   - 0.5493834080717489 x[5,1] - 0.1754484304932735 x[5,2]
   - 0.1910874439461883 x[5,3] >= 0
 findWorstP[1,6]: z + 0.0840807174887893 cashProportion[1]
   - 0.0840807174887893 cashProportion[6] + 0.5493834080717489 x[1,1]
   + 0.1754484304932735 x[1,2] + 0.1910874439461883 x[1,3]
   - 0.5493834080717489 x[6,1] - 0.1754484304932735 x[6,2]
   - 0.1910874439461883 x[6,3] >= 0
 findWorstP[2,1]: z - 0.0506756756756757 cashProportion[1]
   + 0.0506756756756757 cashProportion[2] - 0.3155743243243243 x[1,1]
   - 0.3351351351351351 x[1,2] - 0.2986148648648649 x[1,3]
   + 0.3155743243243243 x[2,1] + 0.3351351351351351 x[2,2]
   + 0.2986148648648649 x[2,3] >= 0
 findWorstP[2,3]: z + 0.0506756756756757 cashProportion[2]
   - 0.0506756756756757 cashProportion[3] + 0.3155743243243243 x[2,1]
   + 0.3351351351351351 x[2,2] + 0.2986148648648649 x[2,3]
   - 0.3155743243243243 x[3,1] - 0.3351351351351351 x[3,2]
   - 0.2986148648648649 x[3,3] >= 0
 findWorstP[2,4]: z + 0.0506756756756757 cashProportion[2]
   - 0.0506756756756757 cashProportion[4] + 0.3155743243243243 x[2,1]
   + 0.3351351351351351 x[2,2] + 0.2986148648648649 x[2,3]
   - 0.3155743243243243 x[4,1] - 0.3351351351351351 x[4,2]
   - 0.2986148648648649 x[4,3] >= 0
 findWorstP[2,5]: z + 0.0506756756756757 cashProportion[2]
   - 0.0506756756756757 cashProportion[5] + 0.3155743243243243 x[2,1]
   + 0.3351351351351351 x[2,2] + 0.2986148648648649 x[2,3]
   - 0.3155743243243243 x[5,1] - 0.3351351351351351 x[5,2]
   - 0.2986148648648649 x[5,3] >= 0
 findWorstP[2,6]: z + 0.0506756756756757 cashProportion[2]
   - 0.0506756756756757 cashProportion[6] + 0.3155743243243243 x[2,1]
   + 0.3351351351351351 x[2,2] + 0.2986148648648649 x[2,3]
   - 0.3155743243243243 x[6,1] - 0.3351351351351351 x[6,2]
   - 0.2986148648648649 x[6,3] >= 0
 findWorstP[3,1]: z - 0.0915303880888455 cashProportion[1]
   + 0.0915303880888455 cashProportion[3] - 0.2842323651452283 x[1,1]
   - 0.3052233341469368 x[1,2] - 0.3190139126189895 x[1,3]
   + 0.2842323651452283 x[3,1] + 0.3052233341469368 x[3,2]
   + 0.3190139126189895 x[3,3] >= 0
 findWorstP[3,2]: z - 0.0915303880888455 cashProportion[2]
   + 0.0915303880888455 cashProportion[3] - 0.2842323651452283 x[2,1]
   - 0.3052233341469368 x[2,2] - 0.3190139126189895 x[2,3]
   + 0.2842323651452283 x[3,1] + 0.3052233341469368 x[3,2]
   + 0.3190139126189895 x[3,3] >= 0
 findWorstP[3,4]: z + 0.0915303880888455 cashProportion[3]
   - 0.0915303880888455 cashProportion[4] + 0.2842323651452283 x[3,1]
   + 0.3052233341469368 x[3,2] + 0.3190139126189895 x[3,3]
   - 0.2842323651452283 x[4,1] - 0.3052233341469368 x[4,2]
   - 0.3190139126189895 x[4,3] >= 0
 findWorstP[3,5]: z + 0.0915303880888455 cashProportion[3]
   - 0.0915303880888455 cashProportion[5] + 0.2842323651452283 x[3,1]
   + 0.3052233341469368 x[3,2] + 0.3190139126189895 x[3,3]
   - 0.2842323651452283 x[5,1] - 0.3052233341469368 x[5,2]
   - 0.3190139126189895 x[5,3] >= 0
 findWorstP[3,6]: z + 0.0915303880888455 cashProportion[3]
   - 0.0915303880888455 cashProportion[6] + 0.2842323651452283 x[3,1]
   + 0.3052233341469368 x[3,2] + 0.3190139126189895 x[3,3]
   - 0.2842323651452283 x[6,1] - 0.3052233341469368 x[6,2]
   - 0.3190139126189895 x[6,3] >= 0
 findWorstP[4,1]: z - 0.1149954001839927 cashProportion[1]
   + 0.1149954001839927 cashProportion[4] - 0.5434682612695493 x[1,1]
   - 0.1221251149954002 x[1,2] - 0.219411223551058 x[1,3]
   + 0.5434682612695493 x[4,1] + 0.1221251149954002 x[4,2]
   + 0.219411223551058 x[4,3] >= 0
 findWorstP[4,2]: z - 0.1149954001839927 cashProportion[2]
   + 0.1149954001839927 cashProportion[4] - 0.5434682612695493 x[2,1]
   - 0.1221251149954002 x[2,2] - 0.219411223551058 x[2,3]
   + 0.5434682612695493 x[4,1] + 0.1221251149954002 x[4,2]
   + 0.219411223551058 x[4,3] >= 0
 findWorstP[4,3]: z - 0.1149954001839927 cashProportion[3]
   + 0.1149954001839927 cashProportion[4] - 0.5434682612695493 x[3,1]
   - 0.1221251149954002 x[3,2] - 0.219411223551058 x[3,3]
   + 0.5434682612695493 x[4,1] + 0.1221251149954002 x[4,2]
   + 0.219411223551058 x[4,3] >= 0
 findWorstP[4,5]: z + 0.1149954001839927 cashProportion[4]
   - 0.1149954001839927 cashProportion[5] + 0.5434682612695493 x[4,1]
   + 0.1221251149954002 x[4,2] + 0.219411223551058 x[4,3]
   - 0.5434682612695493 x[5,1] - 0.1221251149954002 x[5,2]
   - 0.219411223551058 x[5,3] >= 0
 findWorstP[4,6]: z + 0.1149954001839927 cashProportion[4]
   - 0.1149954001839927 cashProportion[6] + 0.5434682612695493 x[4,1]
   + 0.1221251149954002 x[4,2] + 0.219411223551058 x[4,3]
   - 0.5434682612695493 x[6,1] - 0.1221251149954002 x[6,2]
   - 0.219411223551058 x[6,3] >= 0
 findWorstP[5,1]: z - 0.0740887088807666 cashProportion[1]
   + 0.0740887088807666 cashProportion[5] - 0.3400671737627186 x[1,1]
   - 0.0936481280252889 x[1,2] - 0.492195989331226 x[1,3]
   + 0.3400671737627186 x[5,1] + 0.0936481280252889 x[5,2]
   + 0.492195989331226 x[5,3] >= 0
 findWorstP[5,2]: z - 0.0740887088807666 cashProportion[2]
   + 0.0740887088807666 cashProportion[5] - 0.3400671737627186 x[2,1]
   - 0.0936481280252889 x[2,2] - 0.492195989331226 x[2,3]
   + 0.3400671737627186 x[5,1] + 0.0936481280252889 x[5,2]
   + 0.492195989331226 x[5,3] >= 0
 findWorstP[5,3]: z - 0.0740887088807666 cashProportion[3]
   + 0.0740887088807666 cashProportion[5] - 0.3400671737627186 x[3,1]
   - 0.0936481280252889 x[3,2] - 0.492195989331226 x[3,3]
   + 0.3400671737627186 x[5,1] + 0.0936481280252889 x[5,2]
   + 0.492195989331226 x[5,3] >= 0
 findWorstP[5,4]: z - 0.0740887088807666 cashProportion[4]
   + 0.0740887088807666 cashProportion[5] - 0.3400671737627186 x[4,1]
   - 0.0936481280252889 x[4,2] - 0.492195989331226 x[4,3]
   + 0.3400671737627186 x[5,1] + 0.0936481280252889 x[5,2]
   + 0.492195989331226 x[5,3] >= 0
 findWorstP[5,6]: z + 0.0740887088807666 cashProportion[5]
   - 0.0740887088807666 cashProportion[6] + 0.3400671737627186 x[5,1]
   + 0.0936481280252889 x[5,2] + 0.492195989331226 x[5,3]
   - 0.3400671737627186 x[6,1] - 0.0936481280252889 x[6,2]
   - 0.492195989331226 x[6,3] >= 0
 findWorstP[6,1]: z - 0.0859057327759006 cashProportion[1]
   + 0.0859057327759006 cashProportion[6] - 0.2589198785865643 x[1,1]
   - 0.2362407651337265 x[1,2] - 0.4189336235038085 x[1,3]
   + 0.2589198785865643 x[6,1] + 0.2362407651337265 x[6,2]
   + 0.4189336235038085 x[6,3] >= 0
 findWorstP[6,2]: z - 0.0859057327759006 cashProportion[2]
   + 0.0859057327759006 cashProportion[6] - 0.2589198785865643 x[2,1]
   - 0.2362407651337265 x[2,2] - 0.4189336235038085 x[2,3]
   + 0.2589198785865643 x[6,1] + 0.2362407651337265 x[6,2]
   + 0.4189336235038085 x[6,3] >= 0
 findWorstP[6,3]: z - 0.0859057327759006 cashProportion[3]
   + 0.0859057327759006 cashProportion[6] - 0.2589198785865643 x[3,1]
   - 0.2362407651337265 x[3,2] - 0.4189336235038085 x[3,3]
   + 0.2589198785865643 x[6,1] + 0.2362407651337265 x[6,2]
   + 0.4189336235038085 x[6,3] >= 0
 findWorstP[6,4]: z - 0.0859057327759006 cashProportion[4]
   + 0.0859057327759006 cashProportion[6] - 0.2589198785865643 x[4,1]
   - 0.2362407651337265 x[4,2] - 0.4189336235038085 x[4,3]
   + 0.2589198785865643 x[6,1] + 0.2362407651337265 x[6,2]
   + 0.4189336235038085 x[6,3] >= 0
 findWorstP[6,5]: z - 0.0859057327759006 cashProportion[5]
   + 0.0859057327759006 cashProportion[6] - 0.2589198785865643 x[5,1]
   - 0.2362407651337265 x[5,2] - 0.4189336235038085 x[5,3]
   + 0.2589198785865643 x[6,1] + 0.2362407651337265 x[6,2]
   + 0.4189336235038085 x[6,3] >= 0
Bounds
 z <= 1
 -infinity <= cashProportion[1] <= 1
 -infinity <= cashProportion[2] <= 1
 -infinity <= cashProportion[3] <= 1
 -infinity <= cashProportion[4] <= 1
 -infinity <= cashProportion[5] <= 1
 -infinity <= cashProportion[6] <= 1
Binaries
 x[1,1] x[1,2] x[1,3] x[2,1] x[2,2] x[2,3] x[3,1] x[3,2] x[3,3] x[4,1]
 x[4,2] x[4,3] x[5,1] x[5,2] x[5,3] x[6,1] x[6,2] x[6,3]
End
