data/mps_files/pEFS/103_2.mps
NAME foo
ROWS
 N  OBJ
 E  allocateEach[1]
 E  allocateEach[2]
 E  allocateEach[3]
 E  allocateAllCash
 G  findWorstP[1,2]
 G  findWorstP[1,3]
 G  findWorstP[1,4]
 G  findWorstP[1,5]
 G  findWorstP[1,6]
 G  findWorstP[2,1]
 G  findWorstP[2,3]
 G  findWorstP[2,4]
 G  findWorstP[2,5]
 G  findWorstP[2,6]
 G  findWorstP[3,1]
 G  findWorstP[3,2]
 G  findWorstP[3,4]
 G  findWorstP[3,5]
 G  findWorstP[3,6]
 G  findWorstP[4,1]
 G  findWorstP[4,2]
 G  findWorstP[4,3]
 G  findWorstP[4,5]
 G  findWorstP[4,6]
 G  findWorstP[5,1]
 G  findWorstP[5,2]
 G  findWorstP[5,3]
 G  findWorstP[5,4]
 G  findWorstP[5,6]
 G  findWorstP[6,1]
 G  findWorstP[6,2]
 G  findWorstP[6,3]
 G  findWorstP[6,4]
 G  findWorstP[6,5]
COLUMNS
    z         OBJ       1
    z         findWorstP[1,2]  1
    z         findWorstP[1,3]  1
    z         findWorstP[1,4]  1
    z         findWorstP[1,5]  1
    z         findWorstP[1,6]  1
    z         findWorstP[2,1]  1
    z         findWorstP[2,3]  1
    z         findWorstP[2,4]  1
    z         findWorstP[2,5]  1
    z         findWorstP[2,6]  1
    z         findWorstP[3,1]  1
    z         findWorstP[3,2]  1
    z         findWorstP[3,4]  1
    z         findWorstP[3,5]  1
    z         findWorstP[3,6]  1
    z         findWorstP[4,1]  1
    z         findWorstP[4,2]  1
    z         findWorstP[4,3]  1
    z         findWorstP[4,5]  1
    z         findWorstP[4,6]  1
    z         findWorstP[5,1]  1
    z         findWorstP[5,2]  1
    z         findWorstP[5,3]  1
    z         findWorstP[5,4]  1
    z         findWorstP[5,6]  1
    z         findWorstP[6,1]  1
    z         findWorstP[6,2]  1
    z         findWorstP[6,3]  1
    z         findWorstP[6,4]  1
    z         findWorstP[6,5]  1
    cashProportion[1]  allocateAllCash  1
    cashProportion[1]  findWorstP[1,2]  8.4080717488789258e-02
    cashProportion[1]  findWorstP[1,3]  8.4080717488789258e-02
    cashProportion[1]  findWorstP[1,4]  8.4080717488789258e-02
    cashProportion[1]  findWorstP[1,5]  8.4080717488789258e-02
    cashProportion[1]  findWorstP[1,6]  8.4080717488789258e-02
    cashProportion[1]  findWorstP[2,1]  -5.0675675675675678e-02
    cashProportion[1]  findWorstP[3,1]  -9.1530388088845518e-02
    cashProportion[1]  findWorstP[4,1]  -1.1499540018399267e-01
    cashProportion[1]  findWorstP[5,1]  -7.4088708880766588e-02
    cashProportion[1]  findWorstP[6,1]  -8.5905732775900592e-02
    cashProportion[2]  allocateAllCash  1
    cashProportion[2]  findWorstP[1,2]  -8.4080717488789258e-02
    cashProportion[2]  findWorstP[2,1]  5.0675675675675678e-02
    cashProportion[2]  findWorstP[2,3]  5.0675675675675678e-02
    cashProportion[2]  findWorstP[2,4]  5.0675675675675678e-02
    cashProportion[2]  findWorstP[2,5]  5.0675675675675678e-02
    cashProportion[2]  findWorstP[2,6]  5.0675675675675678e-02
    cashProportion[2]  findWorstP[3,2]  -9.1530388088845518e-02
    cashProportion[2]  findWorstP[4,2]  -1.1499540018399267e-01
    cashProportion[2]  findWorstP[5,2]  -7.4088708880766588e-02
    cashProportion[2]  findWorstP[6,2]  -8.5905732775900592e-02
    cashProportion[3]  allocateAllCash  1
    cashProportion[3]  findWorstP[1,3]  -8.4080717488789258e-02
    cashProportion[3]  findWorstP[2,3]  -5.0675675675675678e-02
    cashProportion[3]  findWorstP[3,1]  9.1530388088845518e-02
    cashProportion[3]  findWorstP[3,2]  9.1530388088845518e-02
    cashProportion[3]  findWorstP[3,4]  9.1530388088845518e-02
    cashProportion[3]  findWorstP[3,5]  9.1530388088845518e-02
    cashProportion[3]  findWorstP[3,6]  9.1530388088845518e-02
    cashProportion[3]  findWorstP[4,3]  -1.1499540018399267e-01
    cashProportion[3]  findWorstP[5,3]  -7.4088708880766588e-02
    cashProportion[3]  findWorstP[6,3]  -8.5905732775900592e-02
    cashProportion[4]  allocateAllCash  1
    cashProportion[4]  findWorstP[1,4]  -8.4080717488789258e-02
    cashProportion[4]  findWorstP[2,4]  -5.0675675675675678e-02
    cashProportion[4]  findWorstP[3,4]  -9.1530388088845518e-02
    cashProportion[4]  findWorstP[4,1]  1.1499540018399267e-01
    cashProportion[4]  findWorstP[4,2]  1.1499540018399267e-01
    cashProportion[4]  findWorstP[4,3]  1.1499540018399267e-01
    cashProportion[4]  findWorstP[4,5]  1.1499540018399267e-01
    cashProportion[4]  findWorstP[4,6]  1.1499540018399267e-01
    cashProportion[4]  findWorstP[5,4]  -7.4088708880766588e-02
    cashProportion[4]  findWorstP[6,4]  -8.5905732775900592e-02
    cashProportion[5]  allocateAllCash  1
    cashProportion[5]  findWorstP[1,5]  -8.4080717488789258e-02
    cashProportion[5]  findWorstP[2,5]  -5.0675675675675678e-02
    cashProportion[5]  findWorstP[3,5]  -9.1530388088845518e-02
    cashProportion[5]  findWorstP[4,5]  -1.1499540018399267e-01
    cashProportion[5]  findWorstP[5,1]  7.4088708880766588e-02
    cashProportion[5]  findWorstP[5,2]  7.4088708880766588e-02
    cashProportion[5]  findWorstP[5,3]  7.4088708880766588e-02
    cashProportion[5]  findWorstP[5,4]  7.4088708880766588e-02
    cashProportion[5]  findWorstP[5,6]  7.4088708880766588e-02
    cashProportion[5]  findWorstP[6,5]  -8.5905732775900592e-02
    cashProportion[6]  allocateAllCash  1
    cashProportion[6]  findWorstP[1,6]  -8.4080717488789258e-02
    cashProportion[6]  findWorstP[2,6]  -5.0675675675675678e-02
    cashProportion[6]  findWorstP[3,6]  -9.1530388088845518e-02
    cashProportion[6]  findWorstP[4,6]  -1.1499540018399267e-01
    cashProportion[6]  findWorstP[5,6]  -7.4088708880766588e-02
    cashProportion[6]  findWorstP[6,1]  8.5905732775900592e-02
    cashProportion[6]  findWorstP[6,2]  8.5905732775900592e-02
    cashProportion[6]  findWorstP[6,3]  8.5905732775900592e-02
    cashProportion[6]  findWorstP[6,4]  8.5905732775900592e-02
    cashProportion[6]  findWorstP[6,5]  8.5905732775900592e-02
    MARKER    'MARKER'                 'INTORG'
    x[1,1]    allocateEach[1]  1
    x[1,1]    findWorstP[1,2]  5.4938340807174890e-01
    x[1,1]    findWorstP[1,3]  5.4938340807174890e-01
    x[1,1]    findWorstP[1,4]  5.4938340807174890e-01
    x[1,1]    findWorstP[1,5]  5.4938340807174890e-01
    x[1,1]    findWorstP[1,6]  5.4938340807174890e-01
    x[1,1]    findWorstP[2,1]  -3.1557432432432431e-01
    x[1,1]    findWorstP[3,1]  -2.8423236514522826e-01
    x[1,1]    findWorstP[4,1]  -5.4346826126954928e-01
    x[1,1]    findWorstP[5,1]  -3.4006717376271856e-01
    x[1,1]    findWorstP[6,1]  -2.5891987858656434e-01
    x[1,2]    allocateEach[2]  1
    x[1,2]    findWorstP[1,2]  1.7544843049327355e-01
    x[1,2]    findWorstP[1,3]  1.7544843049327355e-01
    x[1,2]    findWorstP[1,4]  1.7544843049327355e-01
    x[1,2]    findWorstP[1,5]  1.7544843049327355e-01
    x[1,2]    findWorstP[1,6]  1.7544843049327355e-01
    x[1,2]    findWorstP[2,1]  -3.3513513513513510e-01
    x[1,2]    findWorstP[3,1]  -3.0522333414693681e-01
    x[1,2]    findWorstP[4,1]  -1.2212511499540020e-01
    x[1,2]    findWorstP[5,1]  -9.3648128025288949e-02
    x[1,2]    findWorstP[6,1]  -2.3624076513372655e-01
    x[1,3]    allocateEach[3]  1
    x[1,3]    findWorstP[1,2]  1.9108744394618835e-01
    x[1,3]    findWorstP[1,3]  1.9108744394618835e-01
    x[1,3]    findWorstP[1,4]  1.9108744394618835e-01
    x[1,3]    findWorstP[1,5]  1.9108744394618835e-01
    x[1,3]    findWorstP[1,6]  1.9108744394618835e-01
    x[1,3]    findWorstP[2,1]  -2.9861486486486488e-01
    x[1,3]    findWorstP[3,1]  -3.1901391261898954e-01
    x[1,3]    findWorstP[4,1]  -0.219411223551058
    x[1,3]    findWorstP[5,1]  -0.492195989331226
    x[1,3]    findWorstP[6,1]  -4.1893362350380847e-01
    x[2,1]    allocateEach[1]  1
    x[2,1]    findWorstP[1,2]  -5.4938340807174890e-01
    x[2,1]    findWorstP[2,1]  3.1557432432432431e-01
    x[2,1]    findWorstP[2,3]  3.1557432432432431e-01
    x[2,1]    findWorstP[2,4]  3.1557432432432431e-01
    x[2,1]    findWorstP[2,5]  3.1557432432432431e-01
    x[2,1]    findWorstP[2,6]  3.1557432432432431e-01
    x[2,1]    findWorstP[3,2]  -2.8423236514522826e-01
    x[2,1]    findWorstP[4,2]  -5.4346826126954928e-01
    x[2,1]    findWorstP[5,2]  -3.4006717376271856e-01
    x[2,1]    findWorstP[6,2]  -2.5891987858656434e-01
    x[2,2]    allocateEach[2]  1
    x[2,2]    findWorstP[1,2]  -1.7544843049327355e-01
    x[2,2]    findWorstP[2,1]  3.3513513513513510e-01
    x[2,2]    findWorstP[2,3]  3.3513513513513510e-01
    x[2,2]    findWorstP[2,4]  3.3513513513513510e-01
    x[2,2]    findWorstP[2,5]  3.3513513513513510e-01
    x[2,2]    findWorstP[2,6]  3.3513513513513510e-01
    x[2,2]    findWorstP[3,2]  -3.0522333414693681e-01
    x[2,2]    findWorstP[4,2]  -1.2212511499540020e-01
    x[2,2]    findWorstP[5,2]  -9.3648128025288949e-02
    x[2,2]    findWorstP[6,2]  -2.3624076513372655e-01
    x[2,3]    allocateEach[3]  1
    x[2,3]    findWorstP[1,2]  -1.9108744394618835e-01
    x[2,3]    findWorstP[2,1]  2.9861486486486488e-01
    x[2,3]    findWorstP[2,3]  2.9861486486486488e-01
    x[2,3]    findWorstP[2,4]  2.9861486486486488e-01
    x[2,3]    findWorstP[2,5]  2.9861486486486488e-01
    x[2,3]    findWorstP[2,6]  2.9861486486486488e-01
    x[2,3]    findWorstP[3,2]  -3.1901391261898954e-01
    x[2,3]    findWorstP[4,2]  -0.219411223551058
    x[2,3]    findWorstP[5,2]  -0.492195989331226
    x[2,3]    findWorstP[6,2]  -4.1893362350380847e-01
    x[3,1]    allocateEach[1]  1
    x[3,1]    findWorstP[1,3]  -5.4938340807174890e-01
    x[3,1]    findWorstP[2,3]  -3.1557432432432431e-01
    x[3,1]    findWorstP[3,1]  2.8423236514522826e-01
    x[3,1]    findWorstP[3,2]  2.8423236514522826e-01
    x[3,1]    findWorstP[3,4]  2.8423236514522826e-01
    x[3,1]    findWorstP[3,5]  2.8423236514522826e-01
    x[3,1]    findWorstP[3,6]  2.8423236514522826e-01
    x[3,1]    findWorstP[4,3]  -5.4346826126954928e-01
    x[3,1]    findWorstP[5,3]  -3.4006717376271856e-01
    x[3,1]    findWorstP[6,3]  -2.5891987858656434e-01
    x[3,2]    allocateEach[2]  1
    x[3,2]    findWorstP[1,3]  -1.7544843049327355e-01
    x[3,2]    findWorstP[2,3]  -3.3513513513513510e-01
    x[3,2]    findWorstP[3,1]  3.0522333414693681e-01
    x[3,2]    findWorstP[3,2]  3.0522333414693681e-01
    x[3,2]    findWorstP[3,4]  3.0522333414693681e-01
    x[3,2]    findWorstP[3,5]  3.0522333414693681e-01
    x[3,2]    findWorstP[3,6]  3.0522333414693681e-01
    x[3,2]    findWorstP[4,3]  -1.2212511499540020e-01
    x[3,2]    findWorstP[5,3]  -9.3648128025288949e-02
    x[3,2]    findWorstP[6,3]  -2.3624076513372655e-01
    x[3,3]    allocateEach[3]  1
    x[3,3]    findWorstP[1,3]  -1.9108744394618835e-01
    x[3,3]    findWorstP[2,3]  -2.9861486486486488e-01
    x[3,3]    findWorstP[3,1]  3.1901391261898954e-01
    x[3,3]    findWorstP[3,2]  3.1901391261898954e-01
    x[3,3]    findWorstP[3,4]  3.1901391261898954e-01
    x[3,3]    findWorstP[3,5]  3.1901391261898954e-01
    x[3,3]    findWorstP[3,6]  3.1901391261898954e-01
    x[3,3]    findWorstP[4,3]  -0.219411223551058
    x[3,3]    findWorstP[5,3]  -0.492195989331226
    x[3,3]    findWorstP[6,3]  -4.1893362350380847e-01
    x[4,1]    allocateEach[1]  1
    x[4,1]    findWorstP[1,4]  -5.4938340807174890e-01
    x[4,1]    findWorstP[2,4]  -3.1557432432432431e-01
    x[4,1]    findWorstP[3,4]  -2.8423236514522826e-01
    x[4,1]    findWorstP[4,1]  5.4346826126954928e-01
    x[4,1]    findWorstP[4,2]  5.4346826126954928e-01
    x[4,1]    findWorstP[4,3]  5.4346826126954928e-01
    x[4,1]    findWorstP[4,5]  5.4346826126954928e-01
    x[4,1]    findWorstP[4,6]  5.4346826126954928e-01
    x[4,1]    findWorstP[5,4]  -3.4006717376271856e-01
    x[4,1]    findWorstP[6,4]  -2.5891987858656434e-01
    x[4,2]    allocateEach[2]  1
    x[4,2]    findWorstP[1,4]  -1.7544843049327355e-01
    x[4,2]    findWorstP[2,4]  -3.3513513513513510e-01
    x[4,2]    findWorstP[3,4]  -3.0522333414693681e-01
    x[4,2]    findWorstP[4,1]  1.2212511499540020e-01
    x[4,2]    findWorstP[4,2]  1.2212511499540020e-01
    x[4,2]    findWorstP[4,3]  1.2212511499540020e-01
    x[4,2]    findWorstP[4,5]  1.2212511499540020e-01
    x[4,2]    findWorstP[4,6]  1.2212511499540020e-01
    x[4,2]    findWorstP[5,4]  -9.3648128025288949e-02
    x[4,2]    findWorstP[6,4]  -2.3624076513372655e-01
    x[4,3]    allocateEach[3]  1
    x[4,3]    findWorstP[1,4]  -1.9108744394618835e-01
    x[4,3]    findWorstP[2,4]  -2.9861486486486488e-01
    x[4,3]    findWorstP[3,4]  -3.1901391261898954e-01
    x[4,3]    findWorstP[4,1]  0.219411223551058
    x[4,3]    findWorstP[4,2]  0.219411223551058
    x[4,3]    findWorstP[4,3]  0.219411223551058
    x[4,3]    findWorstP[4,5]  0.219411223551058
    x[4,3]    findWorstP[4,6]  0.219411223551058
    x[4,3]    findWorstP[5,4]  -0.492195989331226
    x[4,3]    findWorstP[6,4]  -4.1893362350380847e-01
    x[5,1]    allocateEach[1]  1
    x[5,1]    findWorstP[1,5]  -5.4938340807174890e-01
    x[5,1]    findWorstP[2,5]  -3.1557432432432431e-01
    x[5,1]    findWorstP[3,5]  -2.8423236514522826e-01
    x[5,1]    findWorstP[4,5]  -5.4346826126954928e-01
    x[5,1]    findWorstP[5,1]  3.4006717376271856e-01
    x[5,1]    findWorstP[5,2]  3.4006717376271856e-01
    x[5,1]    findWorstP[5,3]  3.4006717376271856e-01
    x[5,1]    findWorstP[5,4]  3.4006717376271856e-01
    x[5,1]    findWorstP[5,6]  3.4006717376271856e-01
    x[5,1]    findWorstP[6,5]  -2.5891987858656434e-01
    x[5,2]    allocateEach[2]  1
    x[5,2]    findWorstP[1,5]  -1.7544843049327355e-01
    x[5,2]    findWorstP[2,5]  -3.3513513513513510e-01
    x[5,2]    findWorstP[3,5]  -3.0522333414693681e-01
    x[5,2]    findWorstP[4,5]  -1.2212511499540020e-01
    x[5,2]    findWorstP[5,1]  9.3648128025288949e-02
    x[5,2]    findWorstP[5,2]  9.3648128025288949e-02
    x[5,2]    findWorstP[5,3]  9.3648128025288949e-02
    x[5,2]    findWorstP[5,4]  9.3648128025288949e-02
    x[5,2]    findWorstP[5,6]  9.3648128025288949e-02
    x[5,2]    findWorstP[6,5]  -2.3624076513372655e-01
    x[5,3]    allocateEach[3]  1
    x[5,3]    findWorstP[1,5]  -1.9108744394618835e-01
    x[5,3]    findWorstP[2,5]  -2.9861486486486488e-01
    x[5,3]    findWorstP[3,5]  -3.1901391261898954e-01
    x[5,3]    findWorstP[4,5]  -0.219411223551058
    x[5,3]    findWorstP[5,1]  0.492195989331226
    x[5,3]    findWorstP[5,2]  0.492195989331226
    x[5,3]    findWorstP[5,3]  0.492195989331226
    x[5,3]    findWorstP[5,4]  0.492195989331226
    x[5,3]    findWorstP[5,6]  0.492195989331226
    x[5,3]    findWorstP[6,5]  -4.1893362350380847e-01
    x[6,1]    allocateEach[1]  1
    x[6,1]    findWorstP[1,6]  -5.4938340807174890e-01
    x[6,1]    findWorstP[2,6]  -3.1557432432432431e-01
    x[6,1]    findWorstP[3,6]  -2.8423236514522826e-01
    x[6,1]    findWorstP[4,6]  -5.4346826126954928e-01
    x[6,1]    findWorstP[5,6]  -3.4006717376271856e-01
    x[6,1]    findWorstP[6,1]  2.5891987858656434e-01
    x[6,1]    findWorstP[6,2]  2.5891987858656434e-01
    x[6,1]    findWorstP[6,3]  2.5891987858656434e-01
    x[6,1]    findWorstP[6,4]  2.5891987858656434e-01
    x[6,1]    findWorstP[6,5]  2.5891987858656434e-01
    x[6,2]    allocateEach[2]  1
    x[6,2]    findWorstP[1,6]  -1.7544843049327355e-01
    x[6,2]    findWorstP[2,6]  -3.3513513513513510e-01
    x[6,2]    findWorstP[3,6]  -3.0522333414693681e-01
    x[6,2]    findWorstP[4,6]  -1.2212511499540020e-01
    x[6,2]    findWorstP[5,6]  -9.3648128025288949e-02
    x[6,2]    findWorstP[6,1]  2.3624076513372655e-01
    x[6,2]    findWorstP[6,2]  2.3624076513372655e-01
    x[6,2]    findWorstP[6,3]  2.3624076513372655e-01
    x[6,2]    findWorstP[6,4]  2.3624076513372655e-01
    x[6,2]    findWorstP[6,5]  2.3624076513372655e-01
    x[6,3]    allocateEach[3]  1
    x[6,3]    findWorstP[1,6]  -1.9108744394618835e-01
    x[6,3]    findWorstP[2,6]  -2.9861486486486488e-01
    x[6,3]    findWorstP[3,6]  -3.1901391261898954e-01
    x[6,3]    findWorstP[4,6]  -0.219411223551058
    x[6,3]    findWorstP[5,6]  -0.492195989331226
    x[6,3]    findWorstP[6,1]  4.1893362350380847e-01
    x[6,3]    findWorstP[6,2]  4.1893362350380847e-01
    x[6,3]    findWorstP[6,3]  4.1893362350380847e-01
    x[6,3]    findWorstP[6,4]  4.1893362350380847e-01
    x[6,3]    findWorstP[6,5]  4.1893362350380847e-01
    MARKER    'MARKER'                 'INTEND'
RHS
    RHS1      allocateEach[1]  1
    RHS1      allocateEach[2]  1
    RHS1      allocateEach[3]  1
    RHS1      allocateAllCash  1
BOUNDS
 UP BND1      z         1
 MI BND1      cashProportion[1]
 UP BND1      cashProportion[1]  1
 MI BND1      cashProportion[2]
 UP BND1      cashProportion[2]  1
 MI BND1      cashProportion[3]
 UP BND1      cashProportion[3]  1
 MI BND1      cashProportion[4]
 UP BND1      cashProportion[4]  1
 MI BND1      cashProportion[5]
 UP BND1      cashProportion[5]  1
 MI BND1      cashProportion[6]
 UP BND1      cashProportion[6]  1
 BV BND1      x[1,1]  
 BV BND1      x[1,2]  
 BV BND1      x[1,3]  
 BV BND1      x[2,1]  
 BV BND1      x[2,2]  
 BV BND1      x[2,3]  
 BV BND1      x[3,1]  
 BV BND1      x[3,2]  
 BV BND1      x[3,3]  
 BV BND1      x[4,1]  
 BV BND1      x[4,2]  
 BV BND1      x[4,3]  
 BV BND1      x[5,1]  
 BV BND1      x[5,2]  
 BV BND1      x[5,3]  
 BV BND1      x[6,1]  
 BV BND1      x[6,2]  
 BV BND1      x[6,3]  
ENDATA
